# (Lines that start with '#' are comments)
# The tiles are:
#   (Space) Empty tile
#   1       Enemy 1 Helicopter  OH58D
#   2       Enemy 2 AntiAirTank Ozelot
                                          
                                          
                                                   
                                   1    
                                 
                              3          3

                          
                                             
                                                   
                                      
                  


                                               
                                      
          
                    
            
   
                                               


   

      
           
                        


       










	   
	   
	   
	   
	   
	   
	   
	   
	   
	   
	   
	   
	   
	   
                                                        
	                                             1 2
                                                    


	   
	   
                       1   
                2  
	   
	   
	   
	   
	   
	   
	   
	   
      

























               
        2    
           1
       










                       
















                                               2                                              
												  
                                        1
												                   
																   
																   
																   
																   
																   
																   
																   
																   
																   
																   
																   
																   
																   
																   
																   
																   
																   
																   
																   
																   
																   
																   
																   
																   
																   
																   
																   
																   
																   
																   
																   
																   
																   
																   
																   
																   
																   
																   
																   
																   
																   
																   
																   
																   
																   
																   
																   
																   
																   
																   
																   
																   
																   
																   
																   
																   
																   
																   
																   
																   
																   
																   
																   
																   
																   
																   
																   
																   
																   
																   
																   
																   